verifications/stream/logs/fix_mod4.opb
min: -604 x9 +292 x10 -189 x11 -597 x12 +609 x13 -189 x14 +28 x15 -18 x16 +5 x17 -18 x18 +738 x19 -556 x20 +269 x21 -549 x22 +33 x23 -250 x24 +40 x25 -140 x26 +39 x27 -29 x28 -275 x29 +1751 x30 -1451 x31 +649 x32 -1437 x33 +71 x34 +1651 x35 -551 x36 ;
+1 x3 >= 1;
-1 x4 >= 0;
+1 x5 >= 1;
+1 x6 >= 1;
+1 x1 >= 1;
-1 x2 +1 x1 -1 x9 >= -1;
+1 x2 -1 x1 -1 x9 >= -1;
-1 x3 -1 x1 +1 x10 >= -1;
+1 x3 +1 x1 +1 x10 >= 1;
-1 x3 +1 x2 -1 x11 >= -1;
+1 x3 -1 x2 -1 x11 >= -1;
-1 x4 +1 x1 -1 x12 >= -1;
+1 x4 -1 x1 -1 x12 >= -1;
-1 x4 -1 x2 +1 x13 >= -1;
+1 x4 +1 x2 +1 x13 >= 1;
-1 x4 +1 x3 -1 x14 >= -1;
+1 x4 -1 x3 -1 x14 >= -1;
-1 x5 -1 x1 +1 x15 >= -1;
+1 x5 +1 x1 +1 x15 >= 1;
-1 x5 +1 x2 -1 x16 >= -1;
+1 x5 -1 x2 -1 x16 >= -1;
-1 x5 -1 x3 +1 x17 >= -1;
+1 x5 +1 x3 +1 x17 >= 1;
-1 x5 +1 x4 -1 x18 >= -1;
+1 x5 -1 x4 -1 x18 >= -1;
-1 x6 -1 x1 +1 x19 >= -1;
+1 x6 +1 x1 +1 x19 >= 1;
-1 x6 +1 x2 -1 x20 >= -1;
+1 x6 -1 x2 -1 x20 >= -1;
-1 x6 -1 x3 +1 x21 >= -1;
+1 x6 +1 x3 +1 x21 >= 1;
-1 x6 +1 x4 -1 x22 >= -1;
+1 x6 -1 x4 -1 x22 >= -1;
-1 x6 -1 x5 +1 x23 >= -1;
+1 x6 +1 x5 +1 x23 >= 1;
-1 x7 +1 x1 -1 x24 >= -1;
+1 x7 -1 x1 -1 x24 >= -1;
-1 x7 -1 x2 +1 x25 >= -1;
+1 x7 +1 x2 +1 x25 >= 1;
-1 x7 +1 x3 -1 x26 >= -1;
+1 x7 -1 x3 -1 x26 >= -1;
-1 x7 -1 x4 +1 x27 >= -1;
+1 x7 +1 x4 +1 x27 >= 1;
-1 x7 +1 x5 -1 x28 >= -1;
+1 x7 -1 x5 -1 x28 >= -1;
-1 x7 +1 x6 -1 x29 >= -1;
+1 x7 -1 x6 -1 x29 >= -1;
-1 x8 -1 x1 +1 x30 >= -1;
+1 x8 +1 x1 +1 x30 >= 1;
-1 x8 +1 x2 -1 x31 >= -1;
+1 x8 -1 x2 -1 x31 >= -1;
-1 x8 -1 x3 +1 x32 >= -1;
+1 x8 +1 x3 +1 x32 >= 1;
-1 x8 +1 x4 -1 x33 >= -1;
+1 x8 -1 x4 -1 x33 >= -1;
-1 x8 -1 x5 +1 x34 >= -1;
+1 x8 +1 x5 +1 x34 >= 1;
-1 x8 -1 x6 +1 x35 >= -1;
+1 x8 +1 x6 +1 x35 >= 1;
-1 x8 +1 x7 -1 x36 >= -1;
+1 x8 -1 x7 -1 x36 >= -1;
