verifications/stream/logs/fix_mod4.sol
# Objective value = -2093
x9 1
x10 1
x11 1
x12 0
x13 0
x14 0
x15 1
x16 1
x17 1
x18 0
x19 1
x20 1
x21 1
x22 0
x23 1
x24 1
x25 1
x26 1
x27 0
x28 1
x29 1
x30 0
x31 0
x32 0
x33 1
x34 0
x35 0
x36 0
x3 1
x4 0
x5 1
x6 1
x1 1
x2 1
x7 1
x8 0
